% number of games is 35

num = 35;
cap = 5;
refill = 2;
fun = [0, 14, -7, 2, 10, 4, -19, 14, 6, 14, 5, -11, -4, 9, 2, 3, -7, 9, 0, 14, 17, 20, -8, 1, -14, 20, 8, -15, -19, -16, -16, 6, 13, -14, -15];
